c "121958.clq"
p edge 100 1344
e 1 17
e 1 18
e 1 19
e 1 21
e 1 22
e 1 23
e 1 26
e 1 27
e 1 29
e 1 30
e 1 31
e 1 32
e 1 35
e 1 36
e 1 39
e 1 42
e 1 43
e 1 44
e 1 47
e 1 48
e 1 53
e 1 55
e 1 56
e 1 61
e 1 62
e 1 66
e 2 17
e 2 18
e 2 19
e 2 20
e 2 21
e 2 22
e 2 23
e 2 27
e 2 28
e 2 31
e 2 34
e 2 39
e 2 45
e 2 63
e 2 66
e 2 70
e 2 79
e 2 84
e 2 89
e 2 94
e 2 98
e 3 17
e 3 18
e 3 19
e 3 20
e 3 21
e 3 23
e 3 32
e 3 47
e 3 55
e 3 70
e 3 75
e 3 76
e 3 81
e 3 85
e 3 91
e 4 17
e 4 18
e 4 20
e 4 25
e 4 26
e 4 30
e 4 44
e 4 45
e 4 52
e 4 57
e 4 61
e 4 65
e 4 69
e 4 98
e 4 99
e 5 17
e 5 18
e 5 19
e 5 20
e 5 21
e 5 22
e 5 24
e 5 25
e 5 26
e 5 29
e 5 31
e 5 34
e 5 35
e 5 37
e 5 39
e 5 42
e 5 45
e 5 46
e 5 54
e 5 61
e 5 62
e 5 65
e 5 75
e 5 83
e 5 90
e 5 92
e 5 93
e 5 98
e 6 17
e 6 18
e 6 20
e 6 21
e 6 22
e 6 23
e 6 24
e 6 26
e 6 27
e 6 28
e 6 34
e 6 43
e 6 44
e 6 48
e 6 52
e 6 55
e 6 58
e 6 60
e 6 79
e 6 80
e 6 85
e 7 17
e 7 18
e 7 19
e 7 21
e 7 22
e 7 23
e 7 24
e 7 25
e 7 28
e 7 35
e 7 39
e 7 43
e 7 45
e 7 47
e 7 50
e 7 53
e 7 58
e 7 61
e 7 63
e 7 72
e 7 90
e 8 17
e 8 18
e 8 19
e 8 20
e 8 21
e 8 22
e 8 24
e 8 25
e 8 26
e 8 28
e 8 32
e 8 33
e 8 36
e 8 38
e 8 56
e 8 57
e 8 75
e 8 76
e 8 88
e 8 89
e 8 91
e 8 93
e 8 96
e 9 17
e 9 18
e 9 19
e 9 20
e 9 21
e 9 22
e 9 24
e 9 27
e 9 28
e 9 32
e 9 35
e 9 36
e 9 37
e 9 40
e 9 41
e 9 51
e 9 64
e 9 65
e 9 74
e 9 87
e 10 17
e 10 18
e 10 19
e 10 20
e 10 22
e 10 23
e 10 24
e 10 25
e 10 27
e 10 34
e 10 38
e 10 40
e 10 41
e 10 42
e 10 47
e 10 48
e 10 50
e 10 52
e 10 53
e 10 58
e 10 59
e 10 64
e 10 66
e 10 80
e 10 83
e 10 85
e 10 89
e 11 17
e 11 18
e 11 19
e 11 20
e 11 23
e 11 24
e 11 30
e 11 31
e 11 32
e 11 33
e 11 35
e 11 36
e 11 40
e 11 47
e 11 48
e 11 54
e 11 55
e 11 64
e 11 65
e 11 67
e 11 72
e 11 85
e 11 88
e 11 89
e 11 92
e 11 98
e 12 17
e 12 18
e 12 19
e 12 20
e 12 21
e 12 22
e 12 23
e 12 24
e 12 25
e 12 26
e 12 27
e 12 29
e 12 30
e 12 31
e 12 37
e 12 39
e 12 40
e 12 54
e 12 55
e 12 68
e 12 74
e 12 94
e 13 17
e 13 18
e 13 19
e 13 21
e 13 23
e 13 25
e 13 29
e 13 31
e 13 34
e 13 40
e 13 44
e 13 49
e 13 50
e 13 61
e 13 65
e 13 69
e 13 73
e 13 82
e 13 89
e 13 94
e 14 17
e 14 18
e 14 19
e 14 20
e 14 21
e 14 22
e 14 23
e 14 25
e 14 27
e 14 34
e 14 35
e 14 44
e 14 45
e 14 54
e 14 57
e 14 65
e 14 72
e 14 74
e 14 76
e 14 91
e 14 95
e 15 17
e 15 18
e 15 19
e 15 20
e 15 21
e 15 22
e 15 23
e 15 24
e 15 25
e 15 26
e 15 32
e 15 37
e 15 38
e 15 40
e 15 43
e 15 50
e 15 51
e 15 52
e 15 61
e 15 64
e 15 67
e 15 69
e 15 77
e 15 91
e 15 100
e 16 17
e 16 19
e 16 20
e 16 23
e 16 27
e 16 28
e 16 29
e 16 30
e 16 33
e 16 42
e 16 46
e 16 51
e 16 55
e 16 58
e 16 62
e 16 63
e 16 71
e 16 73
e 16 95
e 17 18
e 17 19
e 17 20
e 17 21
e 17 22
e 17 23
e 17 24
e 17 25
e 17 26
e 17 27
e 17 28
e 17 29
e 17 30
e 17 32
e 17 34
e 17 36
e 17 37
e 17 38
e 17 39
e 17 40
e 17 41
e 17 42
e 17 43
e 17 44
e 17 45
e 17 47
e 17 48
e 17 49
e 17 50
e 17 51
e 17 52
e 17 53
e 17 54
e 17 55
e 17 56
e 17 58
e 17 59
e 17 60
e 17 63
e 17 67
e 17 72
e 17 75
e 17 78
e 17 79
e 17 86
e 17 92
e 17 93
e 17 94
e 17 95
e 18 19
e 18 20
e 18 21
e 18 22
e 18 24
e 18 25
e 18 26
e 18 27
e 18 28
e 18 30
e 18 31
e 18 33
e 18 36
e 18 38
e 18 40
e 18 41
e 18 42
e 18 46
e 18 47
e 18 48
e 18 49
e 18 51
e 18 52
e 18 56
e 18 57
e 18 59
e 18 60
e 18 62
e 18 63
e 18 66
e 18 67
e 18 68
e 18 70
e 18 71
e 18 72
e 18 77
e 18 78
e 18 80
e 18 83
e 18 84
e 18 86
e 18 91
e 19 20
e 19 21
e 19 22
e 19 23
e 19 24
e 19 25
e 19 26
e 19 28
e 19 29
e 19 30
e 19 31
e 19 32
e 19 33
e 19 34
e 19 35
e 19 41
e 19 42
e 19 43
e 19 44
e 19 46
e 19 48
e 19 50
e 19 51
e 19 54
e 19 59
e 19 60
e 19 65
e 19 68
e 19 69
e 19 70
e 19 71
e 19 72
e 19 75
e 19 78
e 19 79
e 19 80
e 19 81
e 19 83
e 19 84
e 19 85
e 19 87
e 19 89
e 19 90
e 19 95
e 19 96
e 19 98
e 19 99
e 20 21
e 20 22
e 20 24
e 20 26
e 20 27
e 20 28
e 20 29
e 20 30
e 20 32
e 20 33
e 20 36
e 20 37
e 20 38
e 20 39
e 20 41
e 20 46
e 20 50
e 20 51
e 20 52
e 20 58
e 20 62
e 20 63
e 20 64
e 20 69
e 20 72
e 20 76
e 20 81
e 20 82
e 20 84
e 20 85
e 20 95
e 20 96
e 20 97
e 20 98
e 20 99
e 21 22
e 21 23
e 21 24
e 21 25
e 21 26
e 21 28
e 21 29
e 21 30
e 21 31
e 21 32
e 21 33
e 21 36
e 21 37
e 21 39
e 21 42
e 21 43
e 21 44
e 21 45
e 21 48
e 21 49
e 21 50
e 21 53
e 21 54
e 21 57
e 21 59
e 21 63
e 21 64
e 21 68
e 21 70
e 21 71
e 21 74
e 21 78
e 21 80
e 21 84
e 21 85
e 21 87
e 21 88
e 21 91
e 21 95
e 21 96
e 21 98
e 21 99
e 22 23
e 22 24
e 22 25
e 22 26
e 22 27
e 22 28
e 22 29
e 22 30
e 22 32
e 22 33
e 22 34
e 22 35
e 22 36
e 22 37
e 22 38
e 22 41
e 22 42
e 22 44
e 22 46
e 22 47
e 22 48
e 22 49
e 22 51
e 22 54
e 22 55
e 22 65
e 22 66
e 22 68
e 22 69
e 22 71
e 22 80
e 22 81
e 22 82
e 22 83
e 22 90
e 22 92
e 22 93
e 22 98
e 23 24
e 23 25
e 23 26
e 23 27
e 23 28
e 23 29
e 23 30
e 23 31
e 23 33
e 23 34
e 23 35
e 23 37
e 23 38
e 23 39
e 23 40
e 23 41
e 23 42
e 23 44
e 23 45
e 23 49
e 23 52
e 23 54
e 23 56
e 23 58
e 23 64
e 23 66
e 23 67
e 23 72
e 23 73
e 23 74
e 23 75
e 23 82
e 23 83
e 23 90
e 24 25
e 24 26
e 24 27
e 24 29
e 24 30
e 24 31
e 24 32
e 24 33
e 24 35
e 24 37
e 24 38
e 24 39
e 24 41
e 24 42
e 24 46
e 24 47
e 24 48
e 24 49
e 24 50
e 24 54
e 24 56
e 24 57
e 24 59
e 24 60
e 24 61
e 24 62
e 24 65
e 24 67
e 24 71
e 24 74
e 24 79
e 24 80
e 24 83
e 24 84
e 24 87
e 24 90
e 25 26
e 25 27
e 25 28
e 25 29
e 25 30
e 25 31
e 25 32
e 25 33
e 25 34
e 25 35
e 25 36
e 25 37
e 25 38
e 25 39
e 25 40
e 25 41
e 25 42
e 25 43
e 25 44
e 25 45
e 25 46
e 25 47
e 25 48
e 25 50
e 25 51
e 25 52
e 25 53
e 25 54
e 25 56
e 25 57
e 25 58
e 25 63
e 25 64
e 25 70
e 25 71
e 25 73
e 25 74
e 25 76
e 25 78
e 25 80
e 25 82
e 25 83
e 25 86
e 25 89
e 25 91
e 25 92
e 25 97
e 25 100
e 26 27
e 26 28
e 26 29
e 26 30
e 26 31
e 26 34
e 26 35
e 26 36
e 26 38
e 26 41
e 26 43
e 26 46
e 26 47
e 26 48
e 26 49
e 26 50
e 26 53
e 26 55
e 26 58
e 26 59
e 26 61
e 26 62
e 26 66
e 26 67
e 26 72
e 26 74
e 26 75
e 26 78
e 26 80
e 26 87
e 26 88
e 26 90
e 26 95
e 26 96
e 27 28
e 27 29
e 27 30
e 27 31
e 27 32
e 27 36
e 27 37
e 27 42
e 27 43
e 27 44
e 27 49
e 27 51
e 27 55
e 27 60
e 27 61
e 27 62
e 27 64
e 27 70
e 27 73
e 27 78
e 27 83
e 27 87
e 27 93
e 27 99
e 28 29
e 28 33
e 28 34
e 28 37
e 28 39
e 28 41
e 28 42
e 28 46
e 28 47
e 28 49
e 28 50
e 28 51
e 28 52
e 28 53
e 28 55
e 28 58
e 28 59
e 28 61
e 28 76
e 28 82
e 28 85
e 28 86
e 28 90
e 28 91
e 28 97
e 29 31
e 29 33
e 29 37
e 29 38
e 29 40
e 29 41
e 29 42
e 29 45
e 29 48
e 29 52
e 29 59
e 29 63
e 29 68
e 29 70
e 29 73
e 29 77
e 29 79
e 29 86
e 29 90
e 29 94
e 29 95
e 30 31
e 30 32
e 30 33
e 30 34
e 30 37
e 30 39
e 30 44
e 30 45
e 30 46
e 30 51
e 30 57
e 30 61
e 30 63
e 30 64
e 30 65
e 30 67
e 30 76
e 30 77
e 30 78
e 30 81
e 30 82
e 30 90
e 30 91
e 30 94
e 30 98
e 31 32
e 31 33
e 31 34
e 31 35
e 31 36
e 31 38
e 31 39
e 31 40
e 31 43
e 31 44
e 31 46
e 31 49
e 31 53
e 31 60
e 31 66
e 31 67
e 31 69
e 31 81
e 31 95
e 31 97
e 31 100
e 32 33
e 32 35
e 32 46
e 32 51
e 32 56
e 32 57
e 32 59
e 32 62
e 32 63
e 32 64
e 32 67
e 32 70
e 32 73
e 32 77
e 32 81
e 32 84
e 32 86
e 32 92
e 32 93
e 32 95
e 33 34
e 33 35
e 33 36
e 33 41
e 33 46
e 33 49
e 33 50
e 33 54
e 33 55
e 33 56
e 33 67
e 33 71
e 33 73
e 33 74
e 33 76
e 33 82
e 33 86
e 33 87
e 33 88
e 33 96
e 33 99
e 34 35
e 34 36
e 34 38
e 34 44
e 34 45
e 34 46
e 34 50
e 34 52
e 34 54
e 34 55
e 34 60
e 34 62
e 34 67
e 34 78
e 34 80
e 34 82
e 34 87
e 34 89
e 34 93
e 34 97
e 35 36
e 35 42
e 35 43
e 35 51
e 35 69
e 35 73
e 35 76
e 35 79
e 35 83
e 35 84
e 35 99
e 35 100
e 36 37
e 36 38
e 36 40
e 36 41
e 36 43
e 36 52
e 36 54
e 36 57
e 36 58
e 36 60
e 36 61
e 36 65
e 36 68
e 36 69
e 36 70
e 36 71
e 36 72
e 36 81
e 36 89
e 36 91
e 36 92
e 36 94
e 37 38
e 37 39
e 37 40
e 37 43
e 37 45
e 37 47
e 37 48
e 37 52
e 37 53
e 37 54
e 37 55
e 37 61
e 37 76
e 37 78
e 37 80
e 37 83
e 37 86
e 37 90
e 37 91
e 37 92
e 37 93
e 37 94
e 37 96
e 38 39
e 38 40
e 38 43
e 38 48
e 38 51
e 38 55
e 38 59
e 38 65
e 38 70
e 38 78
e 38 84
e 38 85
e 38 89
e 38 92
e 38 96
e 39 40
e 39 45
e 39 46
e 39 49
e 39 50
e 39 53
e 39 55
e 39 56
e 39 57
e 39 58
e 39 59
e 39 60
e 39 61
e 39 62
e 39 66
e 39 67
e 39 75
e 39 77
e 39 79
e 39 80
e 39 82
e 40 41
e 40 43
e 40 52
e 40 57
e 40 58
e 40 64
e 40 65
e 40 66
e 40 77
e 40 92
e 40 97
e 40 98
e 41 48
e 41 65
e 41 75
e 41 77
e 41 79
e 41 93
e 42 44
e 42 45
e 42 47
e 42 53
e 42 54
e 42 56
e 42 77
e 42 83
e 42 87
e 42 95
e 42 97
e 42 98
e 43 45
e 43 47
e 43 50
e 43 52
e 43 53
e 43 56
e 43 57
e 43 59
e 43 66
e 43 69
e 43 80
e 43 93
e 43 95
e 43 97
e 44 47
e 44 53
e 44 60
e 44 62
e 44 64
e 44 66
e 44 73
e 44 75
e 44 77
e 44 82
e 44 85
e 44 88
e 44 89
e 44 91
e 44 94
e 44 99
e 44 100
e 45 49
e 45 60
e 45 65
e 45 70
e 45 71
e 45 79
e 45 86
e 45 89
e 45 98
e 45 99
e 46 49
e 46 51
e 46 53
e 46 56
e 46 59
e 46 60
e 46 61
e 46 62
e 46 63
e 46 66
e 46 72
e 46 75
e 46 81
e 46 88
e 46 90
e 46 97
e 47 56
e 47 57
e 47 59
e 47 66
e 47 69
e 47 78
e 47 89
e 47 100
e 48 49
e 48 53
e 48 56
e 48 62
e 48 64
e 48 65
e 48 68
e 48 71
e 48 73
e 48 74
e 48 78
e 48 79
e 48 80
e 48 94
e 48 96
e 49 56
e 49 58
e 49 59
e 49 69
e 49 72
e 49 75
e 49 100
e 50 70
e 50 72
e 50 87
e 50 96
e 51 64
e 51 70
e 51 79
e 51 85
e 51 87
e 51 88
e 51 89
e 51 93
e 52 57
e 52 62
e 52 66
e 52 69
e 52 73
e 52 82
e 52 88
e 52 99
e 53 60
e 53 73
e 53 74
e 53 76
e 53 80
e 53 82
e 53 89
e 53 92
e 53 98
e 54 57
e 54 63
e 54 68
e 54 69
e 54 71
e 54 76
e 54 79
e 54 81
e 54 82
e 54 83
e 54 86
e 55 58
e 55 66
e 55 67
e 55 68
e 55 71
e 55 76
e 55 77
e 55 79
e 55 81
e 55 84
e 55 90
e 55 93
e 55 94
e 56 63
e 56 84
e 56 88
e 56 96
e 56 98
e 57 58
e 57 60
e 57 61
e 57 62
e 57 67
e 57 68
e 57 74
e 57 75
e 57 76
e 57 89
e 57 97
e 58 60
e 58 68
e 58 73
e 58 83
e 58 86
e 58 87
e 58 95
e 58 97
e 59 63
e 59 68
e 59 72
e 59 78
e 59 84
e 59 91
e 60 68
e 60 72
e 60 74
e 60 78
e 60 81
e 61 63
e 61 69
e 61 73
e 61 74
e 61 85
e 61 93
e 61 97
e 61 99
e 61 100
e 62 64
e 62 67
e 62 68
e 62 71
e 62 88
e 63 68
e 63 72
e 63 74
e 63 78
e 63 85
e 63 95
e 64 69
e 64 71
e 64 94
e 64 99
e 65 85
e 65 96
e 65 100
e 66 71
e 66 74
e 66 76
e 66 86
e 66 88
e 67 70
e 67 76
e 67 77
e 67 81
e 67 84
e 67 86
e 67 94
e 67 99
e 67 100
e 68 77
e 68 86
e 68 92
e 68 94
e 68 96
e 69 70
e 69 77
e 69 82
e 69 87
e 69 88
e 69 91
e 69 100
e 70 81
e 70 84
e 71 73
e 71 75
e 71 97
e 72 75
e 72 79
e 72 83
e 72 92
e 72 97
e 73 93
e 73 96
e 74 75
e 74 79
e 75 77
e 75 80
e 75 81
e 75 99
e 75 100
e 76 77
e 76 90
e 77 84
e 77 98
e 78 81
e 78 87
e 78 88
e 78 92
e 78 93
e 78 94
e 79 83
e 79 84
e 79 87
e 80 85
e 80 86
e 80 92
e 80 100
e 81 82
e 81 86
e 81 87
e 81 95
e 82 85
e 82 88
e 84 88
e 84 93
e 84 97
e 85 91
e 85 94
e 85 95
e 85 100
e 86 90
e 87 96
e 88 90
e 88 100
e 89 91
e 89 99
e 90 92
e 90 96
e 92 98
e 94 99
e 96 97
e 96 100
